120
150
41
52
51
53
51
41
50
43
49
47
49
51
48
47
56
49
45
40
40
40
51
50
49
40
56
55
40
57
44
49
51
43
56
60
45
45
49
52
49
40
52
59
40
57
43
50
46
46
58
58
49
43
46
53
51
48
43
60
47
43
40
41
40
47
48
55
40
40
40
49
48
53
40
40
40
43
56
51
45
45
60
56
43
51
60
46
44
40
40
40
56
52
42
40
54
57
46
47
40
41
41
51
50
49
45
49
56
60
59
40
56
54
59
58
59
54
52
60
55
50
